NAME : portgen-29-1
COMMENT : portgen N=29, seed=1
TYPE : TSP
DIMENSION : 29
EDGE_WEIGHT_TYPE : EUC_2D
NODE_COORD_SECTION
1 921674 250065
2 377506 896048
3 169771 218380
4 877708 813387
5 123344 400022
6 30588 418434
7 113951 210517
8 924356 970453
9 194244 23254
10 45333 569958
11 264618 206470
12 212018 319685
13 423427 581180
14 212210 21951
15 733992 691156
16 264308 7229
17 755721 348018
18 798956 285928
19 200563 209181
20 779738 937621
21 667044 750997
22 958577 165463
23 368408 61344
24 927938 354116
25 976287 819675
26 632837 412885
27 703268 817667
28 154174 914445
29 494344 29488
